p cnf 120 611
c ind 1 2 3 4 5 6 7 8 9 10 11 12 13 14 15 16 17 18 19 20 21 22 23 24 25 26 27 0
-28 1 0
-28 5 0
-28 9 0
-29 10 0
-29 14 0
-29 18 0
-30 19 0
-30 23 0
-30 27 0
-28 1 0
-28 11 0
-28 21 0
-29 4 0
-29 14 0
-29 24 0
-30 7 0
-30 17 0
-30 27 0
-28 -31 1 0
-28 -32 10 0
-28 -33 19 0
-28 -34 4 0
-28 -35 13 0
-28 -36 22 0
-28 -37 7 0
-28 -38 16 0
-28 -39 25 0
-29 -31 2 0
-29 -32 11 0
-29 -33 20 0
-29 -34 5 0
-29 -35 14 0
-29 -36 23 0
-29 -37 8 0
-29 -38 17 0
-29 -39 26 0
-30 -31 3 0
-30 -32 12 0
-30 -33 21 0
-30 -34 6 0
-30 -35 15 0
-30 -36 24 0
-30 -37 9 0
-30 -38 18 0
-30 -39 27 0
-28 -31 1 0
-28 -32 4 0
-28 -33 7 0
-28 -34 10 0
-28 -35 13 0
-28 -36 16 0
-28 -37 19 0
-28 -38 22 0
-28 -39 25 0
-29 -31 2 0
-29 -32 5 0
-29 -33 8 0
-29 -34 11 0
-29 -35 14 0
-29 -36 17 0
-29 -37 20 0
-29 -38 23 0
-29 -39 26 0
-30 -31 3 0
-30 -32 6 0
-30 -33 9 0
-30 -34 12 0
-30 -35 15 0
-30 -36 18 0
-30 -37 21 0
-30 -38 24 0
-30 -39 27 0
-1 1 40 0
-4 1 41 0
-7 1 42 0
-1 10 43 0
-4 10 44 0
-7 10 45 0
-1 19 46 0
-4 19 47 0
-7 19 48 0
-1 4 49 0
-4 4 50 0
-7 4 51 0
-1 13 52 0
-4 13 53 0
-7 13 54 0
-1 22 55 0
-4 22 56 0
-7 22 57 0
-1 7 58 0
-4 7 59 0
-7 7 60 0
-1 16 61 0
-4 16 62 0
-7 16 63 0
-1 25 64 0
-4 25 65 0
-7 25 66 0
-10 1 67 0
-13 1 68 0
-16 1 69 0
-10 10 70 0
-13 10 71 0
-16 10 72 0
-10 19 73 0
-13 19 74 0
-16 19 75 0
-10 4 76 0
-13 4 77 0
-16 4 78 0
-10 13 79 0
-13 13 80 0
-16 13 81 0
-10 22 82 0
-13 22 83 0
-16 22 84 0
-10 7 85 0
-13 7 86 0
-16 7 87 0
-10 16 88 0
-13 16 89 0
-16 16 90 0
-10 25 91 0
-13 25 92 0
-16 25 93 0
-19 1 94 0
-22 1 95 0
-25 1 96 0
-19 10 97 0
-22 10 98 0
-25 10 99 0
-19 19 100 0
-22 19 101 0
-25 19 102 0
-19 4 103 0
-22 4 104 0
-25 4 105 0
-19 13 106 0
-22 13 107 0
-25 13 108 0
-19 22 109 0
-22 22 110 0
-25 22 111 0
-19 7 112 0
-22 7 113 0
-25 7 114 0
-19 16 115 0
-22 16 116 0
-25 16 117 0
-19 25 118 0
-22 25 119 0
-25 25 120 0
-2 2 40 0
-5 2 41 0
-8 2 42 0
-2 11 43 0
-5 11 44 0
-8 11 45 0
-2 20 46 0
-5 20 47 0
-8 20 48 0
-2 5 49 0
-5 5 50 0
-8 5 51 0
-2 14 52 0
-5 14 53 0
-8 14 54 0
-2 23 55 0
-5 23 56 0
-8 23 57 0
-2 8 58 0
-5 8 59 0
-8 8 60 0
-2 17 61 0
-5 17 62 0
-8 17 63 0
-2 26 64 0
-5 26 65 0
-8 26 66 0
-11 2 67 0
-14 2 68 0
-17 2 69 0
-11 11 70 0
-14 11 71 0
-17 11 72 0
-11 20 73 0
-14 20 74 0
-17 20 75 0
-11 5 76 0
-14 5 77 0
-17 5 78 0
-11 14 79 0
-14 14 80 0
-17 14 81 0
-11 23 82 0
-14 23 83 0
-17 23 84 0
-11 8 85 0
-14 8 86 0
-17 8 87 0
-11 17 88 0
-14 17 89 0
-17 17 90 0
-11 26 91 0
-14 26 92 0
-17 26 93 0
-20 2 94 0
-23 2 95 0
-26 2 96 0
-20 11 97 0
-23 11 98 0
-26 11 99 0
-20 20 100 0
-23 20 101 0
-26 20 102 0
-20 5 103 0
-23 5 104 0
-26 5 105 0
-20 14 106 0
-23 14 107 0
-26 14 108 0
-20 23 109 0
-23 23 110 0
-26 23 111 0
-20 8 112 0
-23 8 113 0
-26 8 114 0
-20 17 115 0
-23 17 116 0
-26 17 117 0
-20 26 118 0
-23 26 119 0
-26 26 120 0
-3 3 40 0
-6 3 41 0
-9 3 42 0
-3 12 43 0
-6 12 44 0
-9 12 45 0
-3 21 46 0
-6 21 47 0
-9 21 48 0
-3 6 49 0
-6 6 50 0
-9 6 51 0
-3 15 52 0
-6 15 53 0
-9 15 54 0
-3 24 55 0
-6 24 56 0
-9 24 57 0
-3 9 58 0
-6 9 59 0
-9 9 60 0
-3 18 61 0
-6 18 62 0
-9 18 63 0
-3 27 64 0
-6 27 65 0
-9 27 66 0
-12 3 67 0
-15 3 68 0
-18 3 69 0
-12 12 70 0
-15 12 71 0
-18 12 72 0
-12 21 73 0
-15 21 74 0
-18 21 75 0
-12 6 76 0
-15 6 77 0
-18 6 78 0
-12 15 79 0
-15 15 80 0
-18 15 81 0
-12 24 82 0
-15 24 83 0
-18 24 84 0
-12 9 85 0
-15 9 86 0
-18 9 87 0
-12 18 88 0
-15 18 89 0
-18 18 90 0
-12 27 91 0
-15 27 92 0
-18 27 93 0
-21 3 94 0
-24 3 95 0
-27 3 96 0
-21 12 97 0
-24 12 98 0
-27 12 99 0
-21 21 100 0
-24 21 101 0
-27 21 102 0
-21 6 103 0
-24 6 104 0
-27 6 105 0
-21 15 106 0
-24 15 107 0
-27 15 108 0
-21 24 109 0
-24 24 110 0
-27 24 111 0
-21 9 112 0
-24 9 113 0
-27 9 114 0
-21 18 115 0
-24 18 116 0
-27 18 117 0
-21 27 118 0
-24 27 119 0
-27 27 120 0
-1 -1 -40 0
-1 -4 -41 0
-1 -7 -42 0
-4 -10 -40 0
-4 -13 -41 0
-4 -16 -42 0
-7 -19 -40 0
-7 -22 -41 0
-7 -25 -42 0
-10 -1 -43 0
-10 -4 -44 0
-10 -7 -45 0
-13 -10 -43 0
-13 -13 -44 0
-13 -16 -45 0
-16 -19 -43 0
-16 -22 -44 0
-16 -25 -45 0
-19 -1 -46 0
-19 -4 -47 0
-19 -7 -48 0
-22 -10 -46 0
-22 -13 -47 0
-22 -16 -48 0
-25 -19 -46 0
-25 -22 -47 0
-25 -25 -48 0
-1 -2 -49 0
-1 -5 -50 0
-1 -8 -51 0
-4 -11 -49 0
-4 -14 -50 0
-4 -17 -51 0
-7 -20 -49 0
-7 -23 -50 0
-7 -26 -51 0
-10 -2 -52 0
-10 -5 -53 0
-10 -8 -54 0
-13 -11 -52 0
-13 -14 -53 0
-13 -17 -54 0
-16 -20 -52 0
-16 -23 -53 0
-16 -26 -54 0
-19 -2 -55 0
-19 -5 -56 0
-19 -8 -57 0
-22 -11 -55 0
-22 -14 -56 0
-22 -17 -57 0
-25 -20 -55 0
-25 -23 -56 0
-25 -26 -57 0
-1 -3 -58 0
-1 -6 -59 0
-1 -9 -60 0
-4 -12 -58 0
-4 -15 -59 0
-4 -18 -60 0
-7 -21 -58 0
-7 -24 -59 0
-7 -27 -60 0
-10 -3 -61 0
-10 -6 -62 0
-10 -9 -63 0
-13 -12 -61 0
-13 -15 -62 0
-13 -18 -63 0
-16 -21 -61 0
-16 -24 -62 0
-16 -27 -63 0
-19 -3 -64 0
-19 -6 -65 0
-19 -9 -66 0
-22 -12 -64 0
-22 -15 -65 0
-22 -18 -66 0
-25 -21 -64 0
-25 -24 -65 0
-25 -27 -66 0
-2 -1 -67 0
-2 -4 -68 0
-2 -7 -69 0
-5 -10 -67 0
-5 -13 -68 0
-5 -16 -69 0
-8 -19 -67 0
-8 -22 -68 0
-8 -25 -69 0
-11 -1 -70 0
-11 -4 -71 0
-11 -7 -72 0
-14 -10 -70 0
-14 -13 -71 0
-14 -16 -72 0
-17 -19 -70 0
-17 -22 -71 0
-17 -25 -72 0
-20 -1 -73 0
-20 -4 -74 0
-20 -7 -75 0
-23 -10 -73 0
-23 -13 -74 0
-23 -16 -75 0
-26 -19 -73 0
-26 -22 -74 0
-26 -25 -75 0
-2 -2 -76 0
-2 -5 -77 0
-2 -8 -78 0
-5 -11 -76 0
-5 -14 -77 0
-5 -17 -78 0
-8 -20 -76 0
-8 -23 -77 0
-8 -26 -78 0
-11 -2 -79 0
-11 -5 -80 0
-11 -8 -81 0
-14 -11 -79 0
-14 -14 -80 0
-14 -17 -81 0
-17 -20 -79 0
-17 -23 -80 0
-17 -26 -81 0
-20 -2 -82 0
-20 -5 -83 0
-20 -8 -84 0
-23 -11 -82 0
-23 -14 -83 0
-23 -17 -84 0
-26 -20 -82 0
-26 -23 -83 0
-26 -26 -84 0
-2 -3 -85 0
-2 -6 -86 0
-2 -9 -87 0
-5 -12 -85 0
-5 -15 -86 0
-5 -18 -87 0
-8 -21 -85 0
-8 -24 -86 0
-8 -27 -87 0
-11 -3 -88 0
-11 -6 -89 0
-11 -9 -90 0
-14 -12 -88 0
-14 -15 -89 0
-14 -18 -90 0
-17 -21 -88 0
-17 -24 -89 0
-17 -27 -90 0
-20 -3 -91 0
-20 -6 -92 0
-20 -9 -93 0
-23 -12 -91 0
-23 -15 -92 0
-23 -18 -93 0
-26 -21 -91 0
-26 -24 -92 0
-26 -27 -93 0
-3 -1 -94 0
-3 -4 -95 0
-3 -7 -96 0
-6 -10 -94 0
-6 -13 -95 0
-6 -16 -96 0
-9 -19 -94 0
-9 -22 -95 0
-9 -25 -96 0
-12 -1 -97 0
-12 -4 -98 0
-12 -7 -99 0
-15 -10 -97 0
-15 -13 -98 0
-15 -16 -99 0
-18 -19 -97 0
-18 -22 -98 0
-18 -25 -99 0
-21 -1 -100 0
-21 -4 -101 0
-21 -7 -102 0
-24 -10 -100 0
-24 -13 -101 0
-24 -16 -102 0
-27 -19 -100 0
-27 -22 -101 0
-27 -25 -102 0
-3 -2 -103 0
-3 -5 -104 0
-3 -8 -105 0
-6 -11 -103 0
-6 -14 -104 0
-6 -17 -105 0
-9 -20 -103 0
-9 -23 -104 0
-9 -26 -105 0
-12 -2 -106 0
-12 -5 -107 0
-12 -8 -108 0
-15 -11 -106 0
-15 -14 -107 0
-15 -17 -108 0
-18 -20 -106 0
-18 -23 -107 0
-18 -26 -108 0
-21 -2 -109 0
-21 -5 -110 0
-21 -8 -111 0
-24 -11 -109 0
-24 -14 -110 0
-24 -17 -111 0
-27 -20 -109 0
-27 -23 -110 0
-27 -26 -111 0
-3 -3 -112 0
-3 -6 -113 0
-3 -9 -114 0
-6 -12 -112 0
-6 -15 -113 0
-6 -18 -114 0
-9 -21 -112 0
-9 -24 -113 0
-9 -27 -114 0
-12 -3 -115 0
-12 -6 -116 0
-12 -9 -117 0
-15 -12 -115 0
-15 -15 -116 0
-15 -18 -117 0
-18 -21 -115 0
-18 -24 -116 0
-18 -27 -117 0
-21 -3 -118 0
-21 -6 -119 0
-21 -9 -120 0
-24 -12 -118 0
-24 -15 -119 0
-24 -18 -120 0
-27 -21 -118 0
-27 -24 -119 0
-27 -27 -120 0
1 2 3 0
-1 -2 0
-1 -3 0
-2 -3 0
4 5 6 0
-4 -5 0
-4 -6 0
-5 -6 0
7 8 9 0
-7 -8 0
-7 -9 0
-8 -9 0
10 11 12 0
-10 -11 0
-10 -12 0
-11 -12 0
13 14 15 0
-13 -14 0
-13 -15 0
-14 -15 0
16 17 18 0
-16 -17 0
-16 -18 0
-17 -18 0
19 20 21 0
-19 -20 0
-19 -21 0
-20 -21 0
22 23 24 0
-22 -23 0
-22 -24 0
-23 -24 0
25 26 27 0
-25 -26 0
-25 -27 0
-26 -27 0
31 34 37 0
-31 -34 0
-31 -37 0
-34 -37 0
32 35 38 0
-32 -35 0
-32 -38 0
-35 -38 0
33 36 39 0
-33 -36 0
-33 -39 0
-36 -39 0
28 29 30 0
-28 -29 0
-28 -30 0
-29 -30 0
28 0
